\ LP format - for model browsing. Use MPS format to capture full model detail.
Maximize
  x + y + z
Subject To
 c0: x + y = 1
 c1: x + 5 y + 2 z <= 10
Bounds
 x <= 5
 2 <= z <= -2
Generals
 x y z
End
